50 8
753 506
696 621
410 764
388 422
255 599
432 656
328 800
509 336
343 545
776 519
282 590
377 880
241 742
275 691
579 794
752 837
382 199
371 203
366 335
292 653
159 392
746 699
869 787
446 874
606 228
395 713
671 676
752 734
268 630
352 250
854 693
884 691
656 266
781 510
424 525
540 247
441 725
868 798
816 613
866 876
786 806
236 864
581 314
485 415
586 894
732 537
568 274
229 195
756 669
702 738
